p tw 496 1664
1 33
2 34
3 35
4 36
5 37
6 38
7 39
8 40
9 41
10 42
11 43
12 44
13 45
14 46
15 47
16 48
17 49
18 50
19 51
20 52
21 53
22 54
23 55
24 56
25 57
26 58
27 59
28 60
29 61
30 62
31 63
32 64
33 108
33 139
33 142
33 144
34 81
34 102
34 105
34 106
35 67
35 92
35 113
35 115
36 74
36 122
36 125
36 126
37 66
37 80
37 81
37 82
38 76
38 77
38 78
38 79
39 85
39 88
39 135
39 137
40 83
40 84
40 85
40 86
41 83
41 96
41 118
41 121
42 73
42 102
42 103
42 104
43 107
43 110
43 111
43 112
44 100
44 105
44 113
44 114
45 71
45 118
45 119
45 120
46 90
46 92
46 93
46 94
47 70
47 87
47 116
47 117
48 93
48 125
48 135
48 136
49 111
49 128
49 138
49 141
50 69
50 80
50 90
50 91
51 99
51 107
51 108
51 109
52 95
52 99
52 100
52 101
53 76
53 87
53 88
53 89
54 77
54 130
54 132
54 134
55 116
55 122
55 123
55 124
56 110
56 127
56 128
56 129
57 95
57 96
57 97
57 98
58 65
58 66
58 67
58 68
59 78
59 138
59 139
59 140
60 65
60 73
60 74
60 75
61 84
61 97
61 132
61 133
62 69
62 70
62 71
62 72
63 103
63 119
63 142
63 143
64 123
64 127
64 130
64 131
65 66
65 67
65 68
65 73
65 74
65 75
66 67
66 68
66 80
66 81
66 82
67 68
67 92
67 113
67 115
68 145
68 146
68 147
68 148
69 70
69 71
69 72
69 80
69 90
69 91
70 71
70 72
70 87
70 116
70 117
71 72
71 118
71 119
71 120
72 149
72 150
72 151
72 152
73 74
73 75
73 102
73 103
73 104
74 75
74 122
74 125
74 126
75 145
75 153
75 154
75 155
76 77
76 78
76 79
76 87
76 88
76 89
77 78
77 79
77 130
77 132
77 134
78 79
78 138
78 139
78 140
79 156
79 157
79 158
79 159
80 81
80 82
80 90
80 91
81 82
81 102
81 105
81 106
82 146
82 160
82 161
82 162
83 84
83 85
83 86
83 96
83 118
83 121
84 85
84 86
84 97
84 132
84 133
85 86
85 88
85 135
85 137
86 163
86 164
86 165
86 166
87 88
87 89
87 116
87 117
88 89
88 135
88 137
89 156
89 167
89 168
89 169
90 91
90 92
90 93
90 94
91 149
91 160
91 170
91 171
92 93
92 94
92 113
92 115
93 94
93 125
93 135
93 136
94 170
94 172
94 173
94 174
95 96
95 97
95 98
95 99
95 100
95 101
96 97
96 98
96 118
96 121
97 98
97 132
97 133
98 175
98 176
98 177
98 178
99 100
99 101
99 107
99 108
99 109
100 101
100 105
100 113
100 114
101 175
101 179
101 180
101 181
102 103
102 104
102 105
102 106
103 104
103 119
103 142
103 143
104 153
104 182
104 183
104 184
105 106
105 113
105 114
106 161
106 182
106 185
106 186
107 108
107 109
107 110
107 111
107 112
108 109
108 139
108 142
108 144
109 179
109 187
109 188
109 189
110 111
110 112
110 127
110 128
110 129
111 112
111 128
111 138
111 141
112 187
112 190
112 191
112 192
113 114
113 115
114 180
114 185
114 193
114 194
115 147
115 172
115 193
115 195
116 117
116 122
116 123
116 124
117 150
117 167
117 196
117 197
118 119
118 120
118 121
119 120
119 142
119 143
120 151
120 198
120 199
120 200
121 163
121 176
121 198
121 201
122 123
122 124
122 125
122 126
123 124
123 127
123 130
123 131
124 196
124 202
124 203
124 204
125 126
125 135
125 136
126 154
126 202
126 205
126 206
127 128
127 129
127 130
127 131
128 129
128 138
128 141
129 190
129 207
129 208
129 209
130 131
130 132
130 134
131 203
131 207
131 210
131 211
132 133
132 134
133 164
133 177
133 212
133 213
134 157
134 210
134 212
134 214
135 136
135 137
136 173
136 205
136 215
136 216
137 165
137 168
137 215
137 217
138 139
138 140
138 141
139 140
139 142
139 144
140 158
140 218
140 219
140 220
141 191
141 208
141 218
141 221
142 143
142 144
143 183
143 199
143 222
143 223
144 188
144 219
144 222
144 224
145 146
145 147
145 148
145 153
145 154
145 155
146 147
146 148
146 160
146 161
146 162
147 148
147 172
147 193
147 195
148 225
148 226
148 227
148 228
149 150
149 151
149 152
149 160
149 170
149 171
150 151
150 152
150 167
150 196
150 197
151 152
151 198
151 199
151 200
152 229
152 230
152 231
152 232
153 154
153 155
153 182
153 183
153 184
154 155
154 202
154 205
154 206
155 225
155 233
155 234
155 235
156 157
156 158
156 159
156 167
156 168
156 169
157 158
157 159
157 210
157 212
157 214
158 159
158 218
158 219
158 220
159 236
159 237
159 238
159 239
160 161
160 162
160 170
160 171
161 162
161 182
161 185
161 186
162 226
162 240
162 241
162 242
163 164
163 165
163 166
163 176
163 198
163 201
164 165
164 166
164 177
164 212
164 213
165 166
165 168
165 215
165 217
166 243
166 244
166 245
166 246
167 168
167 169
167 196
167 197
168 169
168 215
168 217
169 236
169 247
169 248
169 249
170 171
170 172
170 173
170 174
171 229
171 240
171 250
171 251
172 173
172 174
172 193
172 195
173 174
173 205
173 215
173 216
174 250
174 252
174 253
174 254
175 176
175 177
175 178
175 179
175 180
175 181
176 177
176 178
176 198
176 201
177 178
177 212
177 213
178 255
178 256
178 257
178 258
179 180
179 181
179 187
179 188
179 189
180 181
180 185
180 193
180 194
181 255
181 259
181 260
181 261
182 183
182 184
182 185
182 186
183 184
183 199
183 222
183 223
184 233
184 262
184 263
184 264
185 186
185 193
185 194
186 241
186 262
186 265
186 266
187 188
187 189
187 190
187 191
187 192
188 189
188 219
188 222
188 224
189 259
189 267
189 268
189 269
190 191
190 192
190 207
190 208
190 209
191 192
191 208
191 218
191 221
192 267
192 270
192 271
192 272
193 194
193 195
194 260
194 265
194 273
194 274
195 227
195 252
195 273
195 275
196 197
196 202
196 203
196 204
197 230
197 247
197 276
197 277
198 199
198 200
198 201
199 200
199 222
199 223
200 231
200 278
200 279
200 280
201 243
201 256
201 278
201 281
202 203
202 204
202 205
202 206
203 204
203 207
203 210
203 211
204 276
204 282
204 283
204 284
205 206
205 215
205 216
206 234
206 282
206 285
206 286
207 208
207 209
207 210
207 211
208 209
208 218
208 221
209 270
209 287
209 288
209 289
210 211
210 212
210 214
211 283
211 287
211 290
211 291
212 213
212 214
213 244
213 257
213 292
213 293
214 237
214 290
214 292
214 294
215 216
215 217
216 253
216 285
216 295
216 296
217 245
217 248
217 295
217 297
218 219
218 220
218 221
219 220
219 222
219 224
220 238
220 298
220 299
220 300
221 271
221 288
221 298
221 301
222 223
222 224
223 263
223 279
223 302
223 303
224 268
224 299
224 302
224 304
225 226
225 227
225 228
225 233
225 234
225 235
226 227
226 228
226 240
226 241
226 242
227 228
227 252
227 273
227 275
228 305
228 306
228 307
228 308
229 230
229 231
229 232
229 240
229 250
229 251
230 231
230 232
230 247
230 276
230 277
231 232
231 278
231 279
231 280
232 309
232 310
232 311
232 312
233 234
233 235
233 262
233 263
233 264
234 235
234 282
234 285
234 286
235 305
235 313
235 314
235 315
236 237
236 238
236 239
236 247
236 248
236 249
237 238
237 239
237 290
237 292
237 294
238 239
238 298
238 299
238 300
239 316
239 317
239 318
239 319
240 241
240 242
240 250
240 251
241 242
241 262
241 265
241 266
242 306
242 320
242 321
242 322
243 244
243 245
243 246
243 256
243 278
243 281
244 245
244 246
244 257
244 292
244 293
245 246
245 248
245 295
245 297
246 323
246 324
246 325
246 326
247 248
247 249
247 276
247 277
248 249
248 295
248 297
249 316
249 327
249 328
249 329
250 251
250 252
250 253
250 254
251 309
251 320
251 330
251 331
252 253
252 254
252 273
252 275
253 254
253 285
253 295
253 296
254 330
254 332
254 333
254 334
255 256
255 257
255 258
255 259
255 260
255 261
256 257
256 258
256 278
256 281
257 258
257 292
257 293
258 335
258 336
258 337
258 338
259 260
259 261
259 267
259 268
259 269
260 261
260 265
260 273
260 274
261 335
261 339
261 340
261 341
262 263
262 264
262 265
262 266
263 264
263 279
263 302
263 303
264 313
264 342
264 343
264 344
265 266
265 273
265 274
266 321
266 342
266 345
266 346
267 268
267 269
267 270
267 271
267 272
268 269
268 299
268 302
268 304
269 339
269 347
269 348
269 349
270 271
270 272
270 287
270 288
270 289
271 272
271 288
271 298
271 301
272 347
272 350
272 351
272 352
273 274
273 275
274 340
274 345
274 353
274 354
275 307
275 332
275 353
275 355
276 277
276 282
276 283
276 284
277 310
277 327
277 356
277 357
278 279
278 280
278 281
279 280
279 302
279 303
280 311
280 358
280 359
280 360
281 323
281 336
281 358
281 361
282 283
282 284
282 285
282 286
283 284
283 287
283 290
283 291
284 356
284 362
284 363
284 364
285 286
285 295
285 296
286 314
286 362
286 365
286 366
287 288
287 289
287 290
287 291
288 289
288 298
288 301
289 350
289 367
289 368
289 369
290 291
290 292
290 294
291 363
291 367
291 370
291 371
292 293
292 294
293 324
293 337
293 372
293 373
294 317
294 370
294 372
294 374
295 296
295 297
296 333
296 365
296 375
296 376
297 325
297 328
297 375
297 377
298 299
298 300
298 301
299 300
299 302
299 304
300 318
300 378
300 379
300 380
301 351
301 368
301 378
301 381
302 303
302 304
303 343
303 359
303 382
303 383
304 348
304 379
304 382
304 384
305 306
305 307
305 308
305 313
305 314
305 315
306 307
306 308
306 320
306 321
306 322
307 308
307 332
307 353
307 355
308 385
308 386
308 387
308 388
309 310
309 311
309 312
309 320
309 330
309 331
310 311
310 312
310 327
310 356
310 357
311 312
311 358
311 359
311 360
312 389
312 390
312 391
312 392
313 314
313 315
313 342
313 343
313 344
314 315
314 362
314 365
314 366
315 385
315 393
315 394
315 395
316 317
316 318
316 319
316 327
316 328
316 329
317 318
317 319
317 370
317 372
317 374
318 319
318 378
318 379
318 380
319 396
319 397
319 398
319 399
320 321
320 322
320 330
320 331
321 322
321 342
321 345
321 346
322 386
322 400
322 401
322 402
323 324
323 325
323 326
323 336
323 358
323 361
324 325
324 326
324 337
324 372
324 373
325 326
325 328
325 375
325 377
326 403
326 404
326 405
326 406
327 328
327 329
327 356
327 357
328 329
328 375
328 377
329 396
329 407
329 408
329 409
330 331
330 332
330 333
330 334
331 389
331 400
331 410
331 411
332 333
332 334
332 353
332 355
333 334
333 365
333 375
333 376
334 410
334 412
334 413
334 414
335 336
335 337
335 338
335 339
335 340
335 341
336 337
336 338
336 358
336 361
337 338
337 372
337 373
338 415
338 416
338 417
338 418
339 340
339 341
339 347
339 348
339 349
340 341
340 345
340 353
340 354
341 415
341 419
341 420
341 421
342 343
342 344
342 345
342 346
343 344
343 359
343 382
343 383
344 393
344 422
344 423
344 424
345 346
345 353
345 354
346 401
346 422
346 425
346 426
347 348
347 349
347 350
347 351
347 352
348 349
348 379
348 382
348 384
349 419
349 427
349 428
349 429
350 351
350 352
350 367
350 368
350 369
351 352
351 368
351 378
351 381
352 427
352 430
352 431
352 432
353 354
353 355
354 420
354 425
354 433
354 434
355 387
355 412
355 433
355 435
356 357
356 362
356 363
356 364
357 390
357 407
357 436
357 437
358 359
358 360
358 361
359 360
359 382
359 383
360 391
360 438
360 439
360 440
361 403
361 416
361 438
361 441
362 363
362 364
362 365
362 366
363 364
363 367
363 370
363 371
364 436
364 442
364 443
364 444
365 366
365 375
365 376
366 394
366 442
366 445
366 446
367 368
367 369
367 370
367 371
368 369
368 378
368 381
369 430
369 447
369 448
369 449
370 371
370 372
370 374
371 443
371 447
371 450
371 451
372 373
372 374
373 404
373 417
373 452
373 453
374 397
374 450
374 452
374 454
375 376
375 377
376 413
376 445
376 455
376 456
377 405
377 408
377 455
377 457
378 379
378 380
378 381
379 380
379 382
379 384
380 398
380 458
380 459
380 460
381 431
381 448
381 458
381 461
382 383
382 384
383 423
383 439
383 462
383 463
384 428
384 459
384 462
384 464
385 386
385 387
385 388
385 393
385 394
385 395
386 387
386 388
386 400
386 401
386 402
387 388
387 412
387 433
387 435
388 471
389 390
389 391
389 392
389 400
389 410
389 411
390 391
390 392
390 407
390 436
390 437
391 392
391 438
391 439
391 440
392 467
393 394
393 395
393 422
393 423
393 424
394 395
394 442
394 445
394 446
395 469
396 397
396 398
396 399
396 407
396 408
396 409
397 398
397 399
397 450
397 452
397 454
398 399
398 458
398 459
398 460
399 491
400 401
400 402
400 410
400 411
401 402
401 422
401 425
401 426
402 492
403 404
403 405
403 406
403 416
403 438
403 441
404 405
404 406
404 417
404 452
404 453
405 406
405 408
405 455
405 457
406 489
407 408
407 409
407 436
407 437
408 409
408 455
408 457
409 476
410 411
410 412
410 413
410 414
411 479
412 413
412 414
412 433
412 435
413 414
413 445
413 455
413 456
414 483
415 416
415 417
415 418
415 419
415 420
415 421
416 417
416 418
416 438
416 441
417 418
417 452
417 453
418 472
419 420
419 421
419 427
419 428
419 429
420 421
420 425
420 433
420 434
421 477
422 423
422 424
422 425
422 426
423 424
423 439
423 462
423 463
424 487
425 426
425 433
425 434
426 495
427 428
427 429
427 430
427 431
427 432
428 429
428 459
428 462
428 464
429 478
430 431
430 432
430 447
430 448
430 449
431 432
431 448
431 458
431 461
432 486
433 434
433 435
434 485
435 494
436 437
436 442
436 443
436 444
437 482
438 439
438 440
438 441
439 440
439 462
439 463
440 484
441 488
442 443
442 444
442 445
442 446
443 444
443 447
443 450
443 451
444 474
445 446
445 455
445 456
446 493
447 448
447 449
447 450
447 451
448 449
448 458
448 461
449 473
450 451
450 452
450 454
451 465
452 453
452 454
453 468
454 475
455 456
455 457
456 481
457 490
458 459
458 460
458 461
459 460
459 462
459 464
460 470
461 480
462 463
462 464
463 466
464 496
